33D32945 STP File, STP Format Version 1.0

SECTION Comments
Name "shell_n10_d2_s42"
Problem "Euclidean Steiner Tree Problem"
Remark "Generated with STPGenerator. 2 dimensions."
END

SECTION Graph
Nodes 10
END

SECTION Coordinates
DD 0 -0.9395418880 -0.3424339947
DD 1 0.9263520532 -0.3766588290
DD 2 -0.7616872814 -0.6479448166
DD 3 0.3515751231 0.9361596727
DD 4 -0.4534276199 0.8912931019
DD 5 -0.4472213217 -0.8944233279
DD 6 -0.8335130467 0.5524997746
DD 7 -0.9926627957 0.1209155653
DD 8 0.2568456662 0.9664524322
DD 9 -0.9255625401 0.3785947496
END
